Traveling Salesman Problem/TSP_generados/Aleatorio1620390841_5.tsp
NAME: Aleatorio1620390841_5.tsp
COMMENT: Randomly generated scenario
TYPE: TSP
DIMENSION: 5
EDGE_WEIGHT_TYPE: ATT
NODE_COORD_SECTION
1 22.64 0.03
2 29.7 48.62
3 10.6 43.86
4 11.12 13.71
5 36.95 23.15
