Traveling Salesman Problem/TSP_generados/Aleatorio1620390841_5.opt.tour
NAME: Aleatorio1620390841_5.opt.tour
COMMENT: Optimal solution for Aleatorio1620390841_5 (121.39513038669796)
TYPE: TOUR
DIMENSION: 5
TOUR_SECTION
1 4 3 2 5
-1
EOF
